WARNING: for repeatability, setting FPU to use double precision
============================[ Problem Statistics ]=============================
|                                                                             |
|  Number of variables:          8713                                         |
|  Number of clauses:           99699                                         |
|  Parse time:                   0.02 s                                       |
|                                                                             |
c ============================[ Search Statistics ]==============================
c | Conflicts |          ORIGINAL         |          LEARNT          | Progress |
c |           |    Vars  Clauses Literals |    Limit  Clauses Lit/Cl |          |
c ===============================================================================
c Switched to VSIDS.
c Switched to LRB.
c Switched to VSIDS.
c Switched to LRB.
c Switched to VSIDS.
c Switched to LRB.
c Switched to VSIDS.
c Switched to LRB.
c Switched to VSIDS.
c Switched to LRB.
c ===============================================================================
restarts                  : 8709
conflicts                 : 1778361        (2931 /sec)
decisions                 : 35448480       (0.00 % random) (58425 /sec)
propagations              : 541450753      (892407 /sec)
conflict literals         : 1335599408     (25.96 % deleted)

conflicts w/ DIP found    : 1201201        (67.55 % of conflicts)
conflicts w/ dangerous DIP: 0              (0.00 % of conflicts)
conflicts w/ DIP-learning : 10435          (0.59 % of conflicts)
decisions on ext vars     : 44788          (0.13 % of decisions)
total ext vars            : 1071        
tried delete ext vars     : 718         
deleted ext vars          : 718         
max ext vars              : 832         

Memory used               : 490.00 MB
CPU time                  : 606.731 s
DIP computation time      : 11.2695 s (1.86 % of total time)
ER_sel time               : 6.57164 s
ER_add time               : 0.005363 s
ER_delC time              : 0 s
ER_delV time              : 0.106588 s
ER_sub time               : 7.07307 s
ER_stat time              : 0 s

SATISFIABLE
